NAME: ACTUAL_TOURS/amz0148
TYPE: TOUR
COMMENT: RouteID_100410c5-489a-4aef-bad3-b931c0ae65d0
DIMENSION: 113
TOUR_SECTION
28
8
73
47
59
10
53
113
57
66
12
50
92
33
27
39
75
25
78
67
80
35
58
97
112
76
16
65
45
91
72
108
52
34
2
32
103
98
102
46
69
77
5
30
38
79
14
62
22
105
20
21
26
13
6
89
93
68
71
3
31
101
61
88
4
24
54
42
60
87
110
84
111
96
85
1
29
83
90
49
36
17
56
11
104
48
100
63
7
70
81
99
41
23
19
95
74
9
37
40
51
44
86
55
18
94
43
106
64
15
107
109
82
-1
EOF
